182	32	4	160	
10	10	10	10

0	0	0	0	0	0	1	1
1	1	0	1	1	5	1	2
2	4	0	2	4	8	1	3
3	5	0	4	7	5	1	4
4	3	1	0	2	10	2	30	5
5	4	0	2	3	1	1	6
6	3	0	2	3	4	1	7
7	2	0	5	4	10	1	8
8	5	6	0	7	2	2	20	9
9	4	0	4	5	7	1	10
10	6	0	5	2	8	1	11
11	0	3	2	5	7	1	12
12	5	3	0	4	7	1	13
13	2	0	4	8	9	1	14
14	2	4	0	3	2	1	15
15	2	6	0	5	6	1	16
16	3	0	5	5	1	1	17
17	5	0	4	4	9	1	18
18	2	5	0	4	7	2	29	19
19	6	0	4	2	10	1	21
20	7	0	6	5	10	1	21
21	0	7	5	2	5	1	22
22	0	2	3	3	1	1	23
23	5	5	2	0	9	1	24
24	4	0	6	4	8	1	25
25	3	0	2	4	3	1	26
26	6	0	5	6	1	1	27
27	0	1	5	3	9	1	28
28	6	4	8	0	1	1	31
29	0	4	1	3	7	1	31
30	5	5	9	0	10	1	31
31	0	0	0	0	0	0
